--- Job q3_feasible.gms Start 10/14/21 22:21:56 36.2.0 r433180e WEX-WEI x86 64bit/MS Windows
--- Applying:
    C:\GAMS\36\gmsprmNT.txt
--- GAMS Parameters defined
    Input "C:\Users\alpha\OneDrive - Indian Institute of Technology Guwahati\It's time to Clear THings UP\Semester 7\CL643 Computer Aided Applied Optimization\Assignment 4\q3_feasible\q3_feasible.gms"
    PageSize 0
    ScrDir "C:\Users\alpha\OneDrive - Indian Institute of Technology Guwahati\It's time to Clear THings UP\Semester 7\CL643 Computer Aided Applied Optimization\Assignment 4\q3_feasible\225a\"
    SysDir C:\GAMS\36\
    LogOption 3
    ErrMsg 1
    ErrorLog 99
    IDE 1
    LstTitleLeftAligned 1
Licensee: GAMS Demo license for Rohit Nandwani           G210913|0002CO-GEN
          Indian Institute Of Technology Guwahati, India           DL048134
          C:\GAMS\36\gamslice.txt
          nandwani@iitg.ac.in, Rohit Nandwani                              
          Demo license for demonstration and instructional purposes only
Processor information: 1 socket(s), 2 core(s), and 2 thread(s) available
GAMS 36.2.0   Copyright (C) 1987-2021 GAMS Development. All rights reserved
--- Starting compilation
--- q3_feasible.gms(38) 2 Mb
--- Starting execution: elapsed 0:00:00.015
--- q3_feasible.gms(32) 3 Mb
--- Generating MIP model q3_feasible
--- q3_feasible.gms(34) 3 Mb
---   4 rows  4 columns  10 non-zeroes
---   1 discrete-columns
--- Executing CPLEX (Solvelink=2): elapsed 0:00:00.078

IBM ILOG CPLEX   36.2.0 r433180e Released Sep 03, 2021 WEI x86 64bit/MS Window

--- *** This solver runs with a demo license. No commercial use.
--- GMO setup time: 0.00s
--- GMO memory 0.50 Mb (peak 0.50 Mb)
--- Dictionary memory 0.00 Mb
--- Cplex 20.1.0.1 link memory 0.00 Mb (peak 0.00 Mb)
--- Starting Cplex

Version identifier: 20.1.0.1 | 2021-04-07 | 3a818710c
CPXPARAM_Advance                                 0
CPXPARAM_Simplex_Display                         2
CPXPARAM_Threads                                 1
CPXPARAM_MIP_Display                             4
CPXPARAM_MIP_Tolerances_AbsMIPGap                0
Generic callback                                 0x50
Found incumbent of value -3.200000 after 0.00 sec. (0.00 ticks)
Tried aggregator 1 time.
MIP Presolve eliminated 3 rows and 4 columns.
All rows and columns eliminated.
Presolve time = 0.00 sec. (0.00 ticks)

Root node processing (before b&c):
  Real time             =    0.00 sec. (0.00 ticks)
Sequential b&c:
  Real time             =    0.00 sec. (0.00 ticks)
                          ------------
Total (root+branch&cut) =    0.00 sec. (0.00 ticks)

--- MIP status (101): integer optimal solution.
--- Cplex Time: 0.02sec (det. 0.00 ticks)

--- Fixing integer variables and solving final LP...

Version identifier: 20.1.0.1 | 2021-04-07 | 3a818710c
CPXPARAM_Advance                                 2
CPXPARAM_Simplex_Display                         2
CPXPARAM_Threads                                 1
CPXPARAM_MIP_Display                             4
CPXPARAM_MIP_Tolerances_AbsMIPGap                0
Tried aggregator 1 time.
LP Presolve eliminated 2 rows and 3 columns.
Aggregator did 1 substitutions.
All rows and columns eliminated.
Presolve time = 0.00 sec. (0.00 ticks)

--- Fixed MIP status (1): optimal.
--- Cplex Time: 0.00sec (det. 0.00 ticks)


Proven optimal solution
MIP Solution:           -3.200000    (0 iterations, 0 nodes)
Final Solve:            -3.200000    (0 iterations)

Best possible:          -3.200000
Absolute gap:            0.000000
Relative gap:            0.000000

--- Reading solution for model q3_feasible
--- Executing after solve: elapsed 0:00:00.342
--- q3_feasible.gms(38) 3 Mb
*** Status: Normal completion
--- Job q3_feasible.gms Stop 10/14/21 22:21:56 elapsed 0:00:00.354
